benchmarks_CP/INST_36x36/30/inst36x36_30_27.dzn
S=6;
start=[|
-1,	-1,	-1,	-1,	-1,	29,	23,	-1,	-1,	-1,	33,	-1,	18,	-1,	22,	-1,	35,	31,	-1,	-1,	-1,	-1,	-1,	-1,	-1,	15,	-1,	-1,	-1,	34,	-1,	-1,	30,	-1,	-1,	-1|
-1,	8,	15,	-1,	-1,	-1,	6,	20,	-1,	22,	-1,	-1,	-1,	-1,	-1,	33,	-1,	-1,	12,	-1,	-1,	27,	-1,	-1,	-1,	4,	-1,	2,	-1,	-1,	-1,	-1,	-1,	-1,	18,	23|
4,	-1,	-1,	7,	-1,	-1,	-1,	-1,	-1,	-1,	-1,	-1,	-1,	-1,	-1,	-1,	-1,	23,	-1,	26,	-1,	-1,	9,	5,	-1,	12,	-1,	-1,	-1,	-1,	-1,	14,	-1,	-1,	-1,	-1|
-1,	-1,	24,	31,	-1,	-1,	-1,	-1,	-1,	-1,	1,	-1,	6,	25,	-1,	-1,	-1,	-1,	-1,	17,	-1,	-1,	33,	8,	30,	-1,	23,	36,	13,	-1,	22,	27,	-1,	-1,	7,	-1|
14,	-1,	-1,	-1,	-1,	-1,	-1,	5,	16,	-1,	-1,	-1,	-1,	-1,	-1,	-1,	-1,	-1,	-1,	20,	-1,	-1,	35,	29,	-1,	-1,	-1,	-1,	31,	-1,	-1,	-1,	10,	21,	11,	-1|
-1,	-1,	-1,	-1,	-1,	-1,	-1,	10,	-1,	26,	4,	-1,	-1,	-1,	-1,	-1,	-1,	21,	34,	-1,	-1,	-1,	-1,	-1,	-1,	-1,	-1,	-1,	7,	17,	-1,	-1,	29,	-1,	-1,	-1|
-1,	24,	-1,	-1,	-1,	-1,	-1,	3,	-1,	5,	27,	36,	-1,	-1,	-1,	-1,	-1,	-1,	30,	-1,	-1,	-1,	-1,	12,	-1,	-1,	-1,	35,	-1,	33,	13,	17,	-1,	-1,	-1,	26|
15,	-1,	-1,	33,	-1,	-1,	-1,	-1,	-1,	-1,	19,	30,	-1,	-1,	21,	-1,	-1,	-1,	-1,	-1,	-1,	-1,	-1,	10,	-1,	-1,	-1,	-1,	-1,	-1,	29,	34,	-1,	-1,	-1,	4|
-1,	-1,	-1,	26,	-1,	-1,	-1,	-1,	-1,	-1,	-1,	-1,	-1,	-1,	-1,	-1,	-1,	-1,	16,	-1,	-1,	-1,	29,	-1,	-1,	22,	-1,	-1,	-1,	-1,	33,	-1,	-1,	-1,	28,	21|
-1,	-1,	12,	-1,	-1,	-1,	-1,	-1,	-1,	21,	-1,	-1,	33,	-1,	-1,	18,	-1,	-1,	-1,	-1,	-1,	-1,	-1,	-1,	-1,	-1,	-1,	-1,	-1,	-1,	-1,	19,	-1,	-1,	15,	1|
-1,	-1,	-1,	17,	-1,	-1,	-1,	-1,	24,	-1,	26,	-1,	20,	-1,	-1,	-1,	27,	7,	2,	14,	-1,	36,	-1,	-1,	-1,	21,	-1,	19,	-1,	9,	-1,	35,	-1,	-1,	-1,	-1|
30,	-1,	-1,	-1,	23,	3,	-1,	-1,	17,	1,	-1,	35,	-1,	29,	-1,	-1,	-1,	-1,	-1,	15,	-1,	9,	-1,	33,	-1,	-1,	-1,	4,	-1,	2,	8,	22,	-1,	-1,	27,	-1|
-1,	-1,	29,	34,	-1,	-1,	-1,	-1,	-1,	-1,	21,	-1,	31,	-1,	-1,	-1,	-1,	-1,	8,	11,	-1,	-1,	-1,	27,	-1,	-1,	-1,	-1,	-1,	23,	-1,	-1,	-1,	1,	-1,	-1|
-1,	-1,	33,	-1,	-1,	-1,	28,	-1,	34,	20,	5,	-1,	19,	24,	-1,	-1,	2,	-1,	-1,	-1,	-1,	10,	-1,	3,	25,	-1,	-1,	-1,	-1,	-1,	-1,	4,	-1,	27,	13,	-1|
-1,	-1,	-1,	-1,	-1,	10,	29,	-1,	-1,	-1,	-1,	-1,	-1,	11,	-1,	13,	-1,	17,	-1,	-1,	-1,	-1,	-1,	-1,	-1,	-1,	-1,	-1,	-1,	-1,	35,	-1,	-1,	6,	-1,	-1|
7,	-1,	6,	2,	-1,	8,	15,	-1,	18,	24,	-1,	26,	-1,	-1,	-1,	5,	-1,	-1,	35,	4,	-1,	-1,	-1,	-1,	-1,	-1,	-1,	11,	-1,	29,	17,	-1,	14,	-1,	-1,	22|
-1,	-1,	-1,	-1,	-1,	-1,	-1,	9,	-1,	-1,	-1,	-1,	-1,	-1,	-1,	-1,	21,	-1,	-1,	29,	33,	-1,	-1,	18,	-1,	-1,	-1,	-1,	-1,	15,	20,	5,	11,	-1,	-1,	-1|
23,	-1,	-1,	-1,	-1,	13,	-1,	-1,	-1,	-1,	16,	17,	7,	-1,	10,	29,	-1,	-1,	-1,	9,	-1,	-1,	-1,	-1,	-1,	20,	-1,	-1,	-1,	-1,	-1,	-1,	-1,	-1,	36,	-1|
-1,	-1,	-1,	1,	-1,	-1,	-1,	-1,	-1,	30,	17,	-1,	11,	35,	18,	6,	36,	20,	-1,	-1,	2,	-1,	24,	16,	-1,	28,	-1,	-1,	-1,	19,	21,	-1,	-1,	-1,	-1,	14|
26,	-1,	-1,	27,	29,	-1,	-1,	8,	-1,	-1,	14,	-1,	-1,	21,	17,	-1,	-1,	24,	3,	-1,	28,	-1,	15,	-1,	-1,	-1,	32,	-1,	-1,	-1,	-1,	-1,	20,	-1,	-1,	30|
3,	-1,	-1,	25,	5,	-1,	-1,	-1,	21,	-1,	28,	-1,	-1,	32,	-1,	-1,	-1,	-1,	-1,	6,	-1,	-1,	-1,	-1,	-1,	-1,	-1,	-1,	-1,	-1,	-1,	-1,	-1,	-1,	-1,	11|
6,	-1,	-1,	-1,	11,	-1,	-1,	-1,	-1,	-1,	-1,	24,	-1,	-1,	-1,	-1,	-1,	15,	-1,	-1,	-1,	-1,	-1,	-1,	7,	-1,	-1,	-1,	-1,	-1,	-1,	8,	-1,	-1,	-1,	-1|
-1,	-1,	-1,	-1,	18,	15,	31,	-1,	26,	3,	-1,	-1,	28,	-1,	-1,	7,	-1,	-1,	-1,	-1,	-1,	-1,	-1,	-1,	-1,	-1,	-1,	-1,	20,	-1,	2,	-1,	24,	-1,	6,	19|
24,	-1,	-1,	-1,	-1,	-1,	-1,	-1,	-1,	-1,	-1,	-1,	30,	14,	-1,	-1,	31,	-1,	-1,	5,	-1,	-1,	19,	-1,	-1,	-1,	-1,	25,	-1,	-1,	-1,	-1,	-1,	3,	-1,	-1|
-1,	-1,	-1,	-1,	13,	26,	-1,	28,	-1,	-1,	-1,	27,	-1,	9,	-1,	-1,	-1,	-1,	-1,	-1,	34,	-1,	-1,	-1,	-1,	19,	-1,	-1,	-1,	21,	-1,	7,	-1,	-1,	-1,	-1|
-1,	-1,	23,	-1,	-1,	-1,	-1,	-1,	5,	10,	-1,	-1,	-1,	20,	-1,	-1,	-1,	19,	-1,	-1,	-1,	-1,	32,	-1,	-1,	33,	-1,	-1,	-1,	-1,	-1,	-1,	25,	-1,	-1,	-1|
-1,	-1,	-1,	-1,	-1,	-1,	-1,	-1,	-1,	31,	3,	-1,	32,	36,	15,	4,	-1,	-1,	-1,	13,	-1,	-1,	-1,	-1,	-1,	-1,	-1,	-1,	-1,	6,	18,	30,	-1,	-1,	22,	-1|
1,	-1,	5,	-1,	15,	-1,	-1,	-1,	30,	-1,	-1,	-1,	-1,	6,	-1,	-1,	-1,	3,	-1,	-1,	-1,	-1,	18,	-1,	-1,	-1,	-1,	-1,	-1,	14,	10,	-1,	-1,	17,	23,	13|
2,	25,	21,	-1,	-1,	32,	22,	-1,	-1,	-1,	11,	-1,	34,	-1,	-1,	31,	-1,	-1,	-1,	-1,	-1,	-1,	-1,	35,	-1,	-1,	-1,	-1,	10,	-1,	-1,	-1,	-1,	-1,	-1,	33|
31,	-1,	-1,	-1,	-1,	-1,	-1,	15,	-1,	34,	-1,	-1,	13,	-1,	-1,	-1,	-1,	-1,	-1,	-1,	-1,	-1,	1,	-1,	24,	-1,	-1,	-1,	-1,	-1,	11,	26,	-1,	-1,	-1,	-1|
5,	-1,	-1,	-1,	24,	-1,	3,	13,	1,	35,	-1,	-1,	-1,	15,	28,	-1,	6,	10,	-1,	32,	-1,	-1,	-1,	-1,	-1,	-1,	12,	-1,	-1,	25,	-1,	11,	17,	-1,	4,	-1|
-1,	-1,	-1,	23,	-1,	33,	-1,	-1,	-1,	-1,	20,	-1,	-1,	-1,	31,	-1,	-1,	18,	-1,	-1,	-1,	-1,	2,	-1,	16,	-1,	-1,	-1,	-1,	-1,	34,	-1,	-1,	-1,	14,	-1|
-1,	-1,	-1,	32,	-1,	-1,	17,	-1,	-1,	28,	31,	-1,	14,	-1,	13,	-1,	-1,	29,	10,	21,	-1,	-1,	5,	-1,	-1,	-1,	22,	-1,	-1,	-1,	-1,	15,	19,	-1,	1,	-1|
-1,	-1,	8,	19,	-1,	-1,	-1,	-1,	9,	-1,	36,	-1,	12,	-1,	-1,	-1,	22,	-1,	-1,	-1,	11,	-1,	-1,	-1,	-1,	-1,	-1,	-1,	-1,	-1,	-1,	-1,	-1,	-1,	3,	-1|
20,	36,	-1,	-1,	-1,	-1,	25,	19,	11,	-1,	-1,	-1,	-1,	-1,	-1,	-1,	-1,	-1,	-1,	18,	-1,	-1,	14,	17,	4,	32,	-1,	-1,	-1,	13,	-1,	23,	-1,	-1,	-1,	-1|
-1,	15,	11,	3,	-1,	17,	-1,	-1,	32,	-1,	-1,	-1,	27,	-1,	-1,	8,	33,	35,	-1,	-1,	-1,	4,	-1,	-1,	5,	-1,	-1,	23,	2,	10,	16,	-1,	-1,	-1,	-1,	-1|];
